4 
5  00 15 30 43 50 58 
6  05 15 22 30 37 45 52 
7  00 07 15 22 30 37 45 52 
8  00 07 15 22 30 37 45 52 
9  00 07 15 22 30 37 49 56 
10  04 11 19 26 34 41 49 56 
11  04 11 19 26 34 41 49 56 
12  04 11 19 26 34 41 49 56 
13  04 11 19 26 34 41 49 56 
14  04 11 19 26 34 41 49 
15  00 08 15 22 30 38 45 53 
16  00 08 15 23 30 38 45 53 
17  00 08 15 23 30 38 45 54 
18  00 09 15 24 30 39 45 53 
19  04 11 19 26 34 41 51 
20  01 09 17 31 45 
21  00 15 30 45 
22  00 11 26 41 56 
23  16 
0 
